Data path: /scratch/opt/lxu/CFLG/benchmarks/random_A
Instance: r_10_0.4_13.txt
Result path: /scratch/opt/lxu/CFLG/results/random_A
Solver: Gurobi
Time limit: 7200
Formulation: LEFPV2
Cover: Small
julia --project=. src/main.jl /scratch/opt/lxu/CFLG/benchmarks/random_A r_10_0.4_13.txt /scratch/opt/lxu/CFLG/results/random_A Gurobi 7200 LEFPV2 Small
The latest version of Julia in the `release` channel is 1.11.5+0.x64.linux.gnu. You currently have `1.11.4+0.x64.linux.gnu` installed. Run:

  juliaup update

in your terminal shell to install Julia 1.11.5+0.x64.linux.gnu and update the `release` channel to that version.
/scratch/opt/lxu/CFLG/benchmarks/random_A Gurobi 7200.0 /scratch/opt/lxu/CFLG/results/random_A r_10_0.4_13.txt LEFPV2 Small
/scratch/opt/lxu/CFLG/benchmarks/random_A/r_10_0.4_13.txt

 read graph
data loaded


after absorb:7 10

max_piece:8
problem_graph/original graph: node: 7/10 edge: 10/13 dlt: 0.1228897293128583 break_avg_len: 0.6390265924268632 break_max_len: 0.9618411558093726Set parameter TokenServer to value "solice01.zib.de"
Set parameter Threads to value 1
Set parameter OutputFlag to value 1
Gurobi Optimizer version 12.0.1 build v12.0.1rc0 (linux64 - "Debian GNU/Linux 12 (bookworm)")

CPU model: Intel(R) Xeon(R) Gold 5122 CPU @ 3.60GHz, instruction set [SSE2|AVX|AVX2|AVX512]
Thread count: 8 physical cores, 16 logical processors, using up to 1 threads

Non-default parameters:
Threads  1

Optimize a model with 17 rows, 30 columns and 50 nonzeros
Model fingerprint: 0xe2f703bd
Coefficient statistics:
  Matrix range     [1e+00, 1e+00]
  Objective range  [1e+00, 1e+00]
  Bounds range     [1e+00, 1e+00]
  RHS range        [1e+00, 1e+00]
Presolve removed 17 rows and 30 columns
Presolve time: 0.01s
Presolve: All rows and columns removed
Iteration    Objective       Primal Inf.    Dual Inf.      Time
       0    1.0000000e+00   0.000000e+00   0.000000e+00      0s

Solved in 0 iterations and 0.02 seconds (0.00 work units)
Optimal objective  1.000000000e+00

User-callback calls 36, time in user-callback 0.00 sec
elapsed CPU time: 1.233879 seconds
Set parameter TokenServer to value "solice01.zib.de"
Set parameter Threads to value 1
Set parameter OutputFlag to value 1
Set parameter MIPGap to value 0.0001
Set parameter MIPGapAbs to value 0.999998
Set parameter TimeLimit to value 7198.766121

 more cuts:truefalse
0 1
formulation:LEFPV210 0 0
Set parameter PreCrush to value 1

 model loaded

Gurobi Optimizer version 12.0.1 build v12.0.1rc0 (linux64 - "Debian GNU/Linux 12 (bookworm)")

CPU model: Intel(R) Xeon(R) Gold 5122 CPU @ 3.60GHz, instruction set [SSE2|AVX|AVX2|AVX512]
Thread count: 8 physical cores, 16 logical processors, using up to 1 threads

Non-default parameters:
TimeLimit  7198.766121
MIPGapAbs  0.999998
PreCrush  1
Threads  1

Optimize a model with 146 rows, 91 columns and 284 nonzeros
Model fingerprint: 0x1066ce45
Variable types: 27 continuous, 64 integer (64 binary)
Coefficient statistics:
  Matrix range     [2e-03, 1e+00]
  Objective range  [1e+00, 1e+00]
  Bounds range     [1e-01, 1e+00]
  RHS range        [9e-03, 1e+00]
Found heuristic solution: objective 29.0000000
Presolve removed 96 rows and 41 columns
Presolve time: 0.00s
Presolved: 50 rows, 50 columns, 147 nonzeros
Variable types: 24 continuous, 26 integer (26 binary)

Root relaxation: objective 2.203244e+01, 44 iterations, 0.00 seconds (0.00 work units)

    Nodes    |    Current Node    |     Objective Bounds      |     Work
 Expl Unexpl |  Obj  Depth IntInf | Incumbent    BestBd   Gap | It/Node Time

     0     0   22.03244    0   15   29.00000   22.03244  24.0%     -    0s
H    0     0                      26.0000000   22.03244  15.3%     -    0s
elapsed CPU time: 1.3866884703544227e13 seconds
     0     0   23.18931    0   15   26.00000   23.18931  10.8%     -    0s
elapsed CPU time: 0.000783 seconds
     0     0   23.96174    0   12   26.00000   23.96174  7.84%     -    0s
H    0     0                      25.0000000   23.96174  4.15%     -    0s
elapsed CPU time: 0.000658 seconds
     0     0   23.98756    0    8   25.00000   23.98756  4.05%     -    0s
elapsed CPU time: 1.844646259873287e13 seconds
     0     0   23.98827    0   10   25.00000   23.98827  4.05%     -    0s
elapsed CPU time: 0.000692 seconds
     0     0   23.98827    0    9   25.00000   23.98827  4.05%     -    0s
elapsed CPU time: 0.000668 seconds
     0     0   24.00000    0    7   25.00000   24.00000  4.00%     -    0s
elapsed CPU time: 0.000647 seconds
     0     0   24.00000    0   10   25.00000   24.00000  4.00%     -    0s
elapsed CPU time: 0.000633 seconds
     0     0   24.00000    0   11   25.00000   24.00000  4.00%     -    0s
elapsed CPU time: 0.000606 seconds
     0     0   24.00000    0   11   25.00000   24.00000  4.00%     -    0s
elapsed CPU time: 0.0006 seconds
     0     0   24.00000    0   10   25.00000   24.00000  4.00%     -    0s

Cutting planes:
  Cover: 9
  Implied bound: 4
  MIR: 5
  Relax-and-lift: 2

Explored 1 nodes (220 simplex iterations) in 0.93 seconds (0.01 work units)
Thread count was 1 (of 16 available processors)

Solution count 3: 25 26 29 

Optimal solution found (tolerance 1.00e-04)
Best objective 2.500000000000e+01, best bound 2.500000000000e+01, gap 0.0000%

User-callback calls 574, time in user-callback 1.98 sec

 sepatime3.2313347302277098e13 0 0
25.0Stat(MathOptInterface.OPTIMAL, 25.0, 25.0, 0.0, 3.2313347302277098e13, 1.233879, 0.9279048442840576, 1, Main.CFLG.LEFPV2, "", #undef)
